(set-option :auto-config false)
(set-option :model true)
(set-option :model.partial false)
(set-option :smt.mbqi false)
(define-sort SMT_Elt () Int)
(define-sort SMT_Set () (Array SMT_Elt Bool))
(define-fun smt_set_emp () SMT_Set ((as const SMT_Set) false))
(define-fun smt_set_mem ((x SMT_Elt) (s SMT_Set)) Bool (select s x))
(define-fun smt_set_add ((s SMT_Set) (x SMT_Elt)) SMT_Set (store s x true))
(define-fun smt_set_cup ((s1 SMT_Set) (s2 SMT_Set)) SMT_Set ((_ map or) s1 s2))
(define-fun smt_set_cap ((s1 SMT_Set) (s2 SMT_Set)) SMT_Set ((_ map and) s1 s2))
(define-fun smt_set_com ((s SMT_Set)) SMT_Set ((_ map not) s))
(define-fun smt_set_dif ((s1 SMT_Set) (s2 SMT_Set)) SMT_Set (smt_set_cap s1 (smt_set_com s2)))
(define-fun smt_set_sub ((s1 SMT_Set) (s2 SMT_Set)) Bool (= smt_set_emp (smt_set_dif s1 s2)))
(declare-fun z3v62 () Int)
(declare-fun z3v63 () Int)
(assert (distinct z3v62 z3v63))
(declare-fun z3v64 () Int)
(declare-fun z3f65 (Int) Bool)
(declare-fun z3v66 () Int)
(declare-fun z3v67 () Int)
(declare-fun z3v68 () Int)
(declare-fun z3v69 () Int)
(declare-fun z3v70 () Int)
(declare-fun z3v71 () Int)
(declare-fun z3f72 (Int Int Int) Int)
(declare-fun z3v73 () Int)
(declare-fun z3v74 () Int)
(declare-fun z3f75 () Int)
(declare-fun z3v76 () Int)
(declare-fun z3v77 () Int)
(declare-fun z3v78 () Int)
(declare-fun z3v79 () Int)
(declare-fun z3v80 () Int)
(declare-fun z3v81 () Int)
(declare-fun z3v82 () Int)
(declare-fun z3v83 () Int)
(declare-fun z3f84 (Int) Int)
(declare-fun z3v85 () Int)
(declare-fun z3v86 () Int)
(declare-fun z3v87 () Int)
(push 1)
(assert true)
(assert (= z3v87 z3v81))
(assert (and (not (z3f65 z3v64)) (not (z3f65 z3v64)) (= z3v64 z3v66) (= (z3f65 z3v64) (<  z3v68 z3v67)) (= (z3f65 z3v66) (<  z3v68 z3v67)) (= z3v73 (z3f72 z3v69 z3v70 z3v71)) (= z3v73 z3v74) (= z3v76 z3f75) (= z3v76 z3v74) (= z3v77 0) (= z3v77 z3v78) (= z3v79 z3v78) (= z3v79 z3v78) (= z3v79 z3v68) (= z3v80 1) (= z3v82 z3v81) (z3f65 z3v62) (= (z3f84 z3v83) z3v83) (= (z3f84 z3v85) z3v85) (not (z3f65 z3v63)) (= (z3f84 z3v86) z3v86)))
(push 1)
(assert (not (>= z3v87 z3v81)))
(check-sat)
(pop 1)
(push 1)
(assert (not (<= z3v87 z3v81)))
(check-sat)
(pop 1)
(push 1)
(assert (not (not (= z3v87 z3v81))))
(check-sat)
(pop 1)
(push 1)
(assert (not (>  z3v87 z3v81)))
(check-sat)
(pop 1)
(push 1)
(assert (not (<  z3v87 z3v81)))
(check-sat)
(pop 1)
(pop 1)
(declare-fun z3v88 () Int)
(declare-fun z3v89 () Int)
(declare-fun z3v90 () Int)
(declare-fun z3v91 () Int)
(declare-fun z3v92 () Int)
(declare-fun z3v93 () Int)
(push 1)
(assert true)
(assert (= z3v93 z3v81))
(assert (and (not (z3f65 z3v88)) (not (z3f65 z3v88)) (= z3v88 z3v89) (= (z3f65 z3v88) (<= z3v91 z3v90)) (= (z3f65 z3v89) (<= z3v91 z3v90)) (= z3v90 0) (= z3v80 1) (= z3v92 z3v81) (z3f65 z3v62) (= (z3f84 z3v83) z3v83) (= (z3f84 z3v85) z3v85) (not (z3f65 z3v63)) (= (z3f84 z3v86) z3v86)))
(push 1)
(assert (not (>= z3v93 z3v81)))
(check-sat)
(pop 1)
(push 1)
(assert (not (<= z3v93 z3v81)))
(check-sat)
(pop 1)
(push 1)
(assert (not (not (= z3v93 z3v81))))
(check-sat)
(pop 1)
(push 1)
(assert (not (>  z3v93 z3v81)))
(check-sat)
(pop 1)
(push 1)
(assert (not (<  z3v93 z3v81)))
(check-sat)
(pop 1)
(pop 1)
(declare-fun z3v94 () Int)
(declare-fun z3v95 () Int)
(declare-fun z3v96 () Int)
(declare-fun z3v97 () Int)
(declare-fun z3v98 () Int)
(declare-fun z3v99 () Int)
(declare-fun z3v100 () Int)
(declare-fun z3v101 () Int)
(declare-fun z3v102 () Int)
(declare-fun z3v103 () Int)
(declare-fun z3v104 () Int)
(push 1)
(assert true)
(assert (= z3v104 z3v81))
(assert (and (= z3v98 (z3f72 z3v95 z3v96 z3v97)) (= z3v98 z3v99) (not (z3f65 z3v88)) (not (z3f65 z3v88)) (= z3v88 z3v89) (= (z3f65 z3v88) (<= z3v91 z3v90)) (= (z3f65 z3v89) (<= z3v91 z3v90)) (= z3v90 0) (not (z3f65 z3v100)) (not (z3f65 z3v100)) (= z3v100 z3v101) (= (z3f65 z3v100) (<  z3v91 z3v102)) (= (z3f65 z3v101) (<  z3v91 z3v102)) (= z3v80 1) (= z3v103 z3v81) (z3f65 z3v62) (= (z3f84 z3v83) z3v83) (= (z3f84 z3v85) z3v85) (not (z3f65 z3v63)) (= (z3f84 z3v86) z3v86)))
(assert (= z3v94 z3v81))
(assert (>= z3v94 z3v81))
(assert (<= z3v94 z3v81))
(push 1)
(assert (not (>= z3v104 z3v94)))
(check-sat)
(pop 1)
(push 1)
(assert (not (>= z3v104 z3v81)))
(check-sat)
(pop 1)
(push 1)
(assert (not (<= z3v104 z3v94)))
(check-sat)
(pop 1)
(push 1)
(assert (not (<= z3v104 z3v81)))
(check-sat)
(pop 1)
(push 1)
(assert (not (not (= z3v104 z3v94))))
(check-sat)
(pop 1)
(push 1)
(assert (not (not (= z3v104 z3v81))))
(check-sat)
(pop 1)
(push 1)
(assert (not (>  z3v104 z3v94)))
(check-sat)
(pop 1)
(push 1)
(assert (not (>  z3v104 z3v81)))
(check-sat)
(pop 1)
(push 1)
(assert (not (<  z3v104 z3v94)))
(check-sat)
(pop 1)
(push 1)
(assert (not (<  z3v104 z3v81)))
(check-sat)
(pop 1)
(push 1)
(assert (not (= z3v104 z3v94)))
(check-sat)
(pop 1)
(pop 1)
(declare-fun z3v105 () Int)
(declare-fun z3v106 () Int)
(declare-fun z3v107 () Int)
(declare-fun z3v108 () Int)
(declare-fun z3v109 () Int)
(declare-fun z3v110 () Int)
(push 1)
(assert true)
(assert (= z3v110 z3v81))
(assert (and (not (z3f65 z3v105)) (not (z3f65 z3v105)) (= z3v105 z3v106) (= (z3f65 z3v105) (<= z3v108 z3v107)) (= (z3f65 z3v106) (<= z3v108 z3v107)) (= z3v107 0) (= z3v80 1) (= z3v109 z3v81) (z3f65 z3v62) (= (z3f84 z3v83) z3v83) (= (z3f84 z3v85) z3v85) (not (z3f65 z3v63)) (= (z3f84 z3v86) z3v86)))
(push 1)
(assert (not (>= z3v110 z3v81)))
(check-sat)
(pop 1)
(push 1)
(assert (not (<= z3v110 z3v81)))
(check-sat)
(pop 1)
(push 1)
(assert (not (not (= z3v110 z3v81))))
(check-sat)
(pop 1)
(push 1)
(assert (not (>  z3v110 z3v81)))
(check-sat)
(pop 1)
(push 1)
(assert (not (<  z3v110 z3v81)))
(check-sat)
(pop 1)
(pop 1)
(declare-fun z3v111 () Int)
(declare-fun z3v112 () Int)
(declare-fun z3v113 () Int)
(declare-fun z3v114 () Int)
(declare-fun z3v115 () Int)
(push 1)
(assert true)
(assert (= z3v115 z3v81))
(assert (and (not (z3f65 z3v64)) (not (z3f65 z3v64)) (= z3v64 z3v66) (= (z3f65 z3v64) (<  z3v68 z3v67)) (= (z3f65 z3v66) (<  z3v68 z3v67)) (= z3v73 (z3f72 z3v69 z3v70 z3v71)) (= z3v73 z3v74) (= z3v76 (z3f72 z3v111 z3v112 z3v113)) (= z3v76 z3v74) (= z3v77 0) (= z3v77 z3v78) (= z3v79 z3v78) (= z3v79 z3v78) (= z3v79 z3v68) (= z3v80 1) (= z3v114 z3v81) (z3f65 z3v62) (= (z3f84 z3v83) z3v83) (= (z3f84 z3v85) z3v85) (not (z3f65 z3v63)) (= (z3f84 z3v86) z3v86)))
(push 1)
(assert (not (>= z3v115 z3v81)))
(check-sat)
(pop 1)
(push 1)
(assert (not (<= z3v115 z3v81)))
(check-sat)
(pop 1)
(push 1)
(assert (not (not (= z3v115 z3v81))))
(check-sat)
(pop 1)
(push 1)
(assert (not (>  z3v115 z3v81)))
(check-sat)
(pop 1)
(push 1)
(assert (not (<  z3v115 z3v81)))
(check-sat)
(pop 1)
(pop 1)
(declare-fun z3v116 () Int)
(declare-fun z3v117 () Int)
(declare-fun z3v118 () Int)
(declare-fun z3v119 () Int)
(declare-fun z3v120 () Int)
(declare-fun z3v121 () Int)
(declare-fun z3v122 () Int)
(declare-fun z3v123 () Int)
(declare-fun z3v124 () Int)
(declare-fun z3v125 () Int)
(declare-fun z3v126 () Int)
(push 1)
(assert true)
(assert (= z3v126 z3v81))
(assert (and (not (z3f65 z3v117)) (not (z3f65 z3v117)) (= z3v117 z3v118) (= (z3f65 z3v117) (<  z3v108 z3v119)) (= (z3f65 z3v118) (<  z3v108 z3v119)) (= z3v123 (z3f72 z3v120 z3v121 z3v122)) (= z3v123 z3v124) (not (z3f65 z3v105)) (not (z3f65 z3v105)) (= z3v105 z3v106) (= (z3f65 z3v105) (<= z3v108 z3v107)) (= (z3f65 z3v106) (<= z3v108 z3v107)) (= z3v107 0) (= z3v80 1) (= z3v125 z3v81) (z3f65 z3v62) (= (z3f84 z3v83) z3v83) (= (z3f84 z3v85) z3v85) (not (z3f65 z3v63)) (= (z3f84 z3v86) z3v86)))
(assert (= z3v116 z3v81))
(assert (>= z3v116 z3v81))
(assert (<= z3v116 z3v81))
(push 1)
(assert (not (>= z3v126 z3v116)))
(check-sat)
(pop 1)
(push 1)
(assert (not (>= z3v126 z3v81)))
(check-sat)
(pop 1)
(push 1)
(assert (not (<= z3v126 z3v116)))
(check-sat)
(pop 1)
(push 1)
(assert (not (<= z3v126 z3v81)))
(check-sat)
(pop 1)
(push 1)
(assert (not (not (= z3v126 z3v116))))
(check-sat)
(pop 1)
(push 1)
(assert (not (not (= z3v126 z3v81))))
(check-sat)
(pop 1)
(push 1)
(assert (not (>  z3v126 z3v116)))
(check-sat)
(pop 1)
(push 1)
(assert (not (>  z3v126 z3v81)))
(check-sat)
(pop 1)
(push 1)
(assert (not (<  z3v126 z3v116)))
(check-sat)
(pop 1)
(push 1)
(assert (not (<  z3v126 z3v81)))
(check-sat)
(pop 1)
(push 1)
(assert (not (= z3v126 z3v116)))
(check-sat)
(pop 1)
(pop 1)
(declare-fun z3v127 () Int)
(declare-fun z3v128 () Int)
(declare-fun z3v129 () Int)
(declare-fun z3v130 () Int)
(declare-fun z3v131 () Int)
(declare-fun z3v132 () Int)
(push 1)
(assert true)
(assert (= z3v132 z3v81))
(assert (and (not (z3f65 z3v127)) (not (z3f65 z3v127)) (= z3v127 z3v128) (= (z3f65 z3v127) (<  z3v68 z3v129)) (= (z3f65 z3v128) (<  z3v68 z3v129)) (= z3v130 (z3f72 z3v69 z3v70 z3v71)) (= z3v130 z3v74) (not (= z3v77 0)) (= z3v77 z3v78) (= z3v79 z3v78) (= z3v79 z3v78) (= z3v79 z3v68) (= z3v80 1) (= z3v131 z3v81) (z3f65 z3v62) (= (z3f84 z3v83) z3v83) (= (z3f84 z3v85) z3v85) (not (z3f65 z3v63)) (= (z3f84 z3v86) z3v86)))
(push 1)
(assert (not (>= z3v132 z3v81)))
(check-sat)
(pop 1)
(push 1)
(assert (not (<= z3v132 z3v81)))
(check-sat)
(pop 1)
(push 1)
(assert (not (not (= z3v132 z3v81))))
(check-sat)
(pop 1)
(push 1)
(assert (not (>  z3v132 z3v81)))
(check-sat)
(pop 1)
(push 1)
(assert (not (<  z3v132 z3v81)))
(check-sat)
(pop 1)
(pop 1)
(declare-fun z3v133 () Int)
(declare-fun z3v134 () Int)
(declare-fun z3v135 () Int)
(declare-fun z3v136 () Int)
(declare-fun z3v137 () Int)
(push 1)
(assert true)
(assert (= z3v137 z3v135))
(assert (= z3v137 (- z3v68 z3v134)))
(assert (and (= z3v135 (- z3v68 z3v134)) (not (z3f65 z3v127)) (not (z3f65 z3v127)) (= z3v127 z3v128) (= (z3f65 z3v127) (<  z3v68 z3v129)) (= (z3f65 z3v128) (<  z3v68 z3v129)) (= z3v130 (z3f72 z3v69 z3v70 z3v71)) (= z3v130 z3v74) (not (= z3v77 0)) (= z3v77 z3v78) (= z3v79 z3v78) (= z3v79 z3v78) (= z3v79 z3v68) (= z3v80 1) (= z3v136 z3v135) (= z3v136 (- z3v68 z3v134)) (z3f65 z3v62) (= (z3f84 z3v83) z3v83) (= (z3f84 z3v85) z3v85) (not (z3f65 z3v63)) (= (z3f84 z3v86) z3v86)))
(assert (= z3v133 z3v81))
(push 1)
(assert (not (and (>= z3v137 0) (<  z3v137 z3v68))))
(check-sat)
(pop 1)
(pop 1)
(declare-fun z3v138 () Int)
(push 1)
(assert true)
(assert (= z3v138 z3v81))
(assert (and (not (z3f65 z3v127)) (not (z3f65 z3v127)) (= z3v127 z3v128) (= (z3f65 z3v127) (<  z3v68 z3v129)) (= (z3f65 z3v128) (<  z3v68 z3v129)) (= z3v130 (z3f72 z3v69 z3v70 z3v71)) (= z3v130 z3v74) (not (= z3v77 0)) (= z3v77 z3v78) (= z3v79 z3v78) (= z3v79 z3v78) (= z3v79 z3v68) (= z3v80 1) (= z3v131 z3v81) (z3f65 z3v62) (= (z3f84 z3v83) z3v83) (= (z3f84 z3v85) z3v85) (not (z3f65 z3v63)) (= (z3f84 z3v86) z3v86)))
(push 1)
(assert (not (= z3v138 z3v81)))
(check-sat)
(pop 1)
(pop 1)
(declare-fun z3v139 () Int)
(declare-fun z3v140 () Int)
(push 1)
(assert true)
(assert (= z3v140 z3v68))
(assert (and (z3f65 z3v127) (z3f65 z3v127) (= z3v127 z3v128) (= (z3f65 z3v127) (<  z3v68 z3v129)) (= (z3f65 z3v128) (<  z3v68 z3v129)) (= z3v130 (z3f72 z3v69 z3v70 z3v71)) (= z3v130 z3v74) (not (= z3v77 0)) (= z3v77 z3v78) (= z3v79 z3v78) (= z3v79 z3v78) (= z3v79 z3v68) (= z3v80 1) (= z3v139 z3v68) (z3f65 z3v62) (= (z3f84 z3v83) z3v83) (= (z3f84 z3v85) z3v85) (not (z3f65 z3v63)) (= (z3f84 z3v86) z3v86)))
(push 1)
(assert (not (and (>= z3v140 0) (<  z3v140 z3v68))))
(check-sat)
(pop 1)
(pop 1)
(declare-fun z3v141 () Int)
(declare-fun z3v142 () Int)
(declare-fun z3v143 () Int)
(declare-fun z3v144 () Int)
(push 1)
(assert true)
(assert (= z3v144 z3v142))
(assert (= z3v144 (- z3v68 z3v141)))
(assert (and (= z3v142 (- z3v68 z3v141)) (not (z3f65 z3v64)) (not (z3f65 z3v64)) (= z3v64 z3v66) (= (z3f65 z3v64) (<  z3v68 z3v67)) (= (z3f65 z3v66) (<  z3v68 z3v67)) (= z3v73 (z3f72 z3v69 z3v70 z3v71)) (= z3v73 z3v74) (= z3v76 z3f75) (= z3v76 z3v74) (= z3v77 0) (= z3v77 z3v78) (= z3v79 z3v78) (= z3v79 z3v78) (= z3v79 z3v68) (= z3v80 1) (= z3v143 z3v142) (= z3v143 (- z3v68 z3v141)) (z3f65 z3v62) (= (z3f84 z3v83) z3v83) (= (z3f84 z3v85) z3v85) (not (z3f65 z3v63)) (= (z3f84 z3v86) z3v86)))
(assert (= z3v133 z3v81))
(push 1)
(assert (not (and (>= z3v144 0) (<  z3v144 z3v68))))
(check-sat)
(pop 1)
(pop 1)
(declare-fun z3v145 () Int)
(push 1)
(assert true)
(assert (= z3v145 z3v81))
(assert (and (not (z3f65 z3v64)) (not (z3f65 z3v64)) (= z3v64 z3v66) (= (z3f65 z3v64) (<  z3v68 z3v67)) (= (z3f65 z3v66) (<  z3v68 z3v67)) (= z3v73 (z3f72 z3v69 z3v70 z3v71)) (= z3v73 z3v74) (= z3v76 z3f75) (= z3v76 z3v74) (= z3v77 0) (= z3v77 z3v78) (= z3v79 z3v78) (= z3v79 z3v78) (= z3v79 z3v68) (= z3v80 1) (= z3v82 z3v81) (z3f65 z3v62) (= (z3f84 z3v83) z3v83) (= (z3f84 z3v85) z3v85) (not (z3f65 z3v63)) (= (z3f84 z3v86) z3v86)))
(push 1)
(assert (not (= z3v145 z3v81)))
(check-sat)
(pop 1)
(pop 1)
(declare-fun z3v146 () Int)
(declare-fun z3v147 () Int)
(push 1)
(assert true)
(assert (= z3v147 z3v68))
(assert (and (z3f65 z3v64) (z3f65 z3v64) (= z3v64 z3v66) (= (z3f65 z3v64) (<  z3v68 z3v67)) (= (z3f65 z3v66) (<  z3v68 z3v67)) (= z3v73 (z3f72 z3v69 z3v70 z3v71)) (= z3v73 z3v74) (= z3v76 z3f75) (= z3v76 z3v74) (= z3v77 0) (= z3v77 z3v78) (= z3v79 z3v78) (= z3v79 z3v78) (= z3v79 z3v68) (= z3v80 1) (= z3v146 z3v68) (z3f65 z3v62) (= (z3f84 z3v83) z3v83) (= (z3f84 z3v85) z3v85) (not (z3f65 z3v63)) (= (z3f84 z3v86) z3v86)))
(push 1)
(assert (not (and (>= z3v147 0) (<  z3v147 z3v68))))
(check-sat)
(pop 1)
(pop 1)
(declare-fun z3v148 () Int)
(declare-fun z3v149 () Int)
(push 1)
(assert true)
(assert (= z3v149 z3v142))
(assert (= z3v149 (- z3v68 z3v141)))
(assert (and (= z3v142 (- z3v68 z3v141)) (not (z3f65 z3v64)) (not (z3f65 z3v64)) (= z3v64 z3v66) (= (z3f65 z3v64) (<  z3v68 z3v67)) (= (z3f65 z3v66) (<  z3v68 z3v67)) (= z3v73 (z3f72 z3v69 z3v70 z3v71)) (= z3v73 z3v74) (= z3v76 (z3f72 z3v111 z3v112 z3v113)) (= z3v76 z3v74) (= z3v77 0) (= z3v77 z3v78) (= z3v79 z3v78) (= z3v79 z3v78) (= z3v79 z3v68) (= z3v80 1) (= z3v148 z3v142) (= z3v148 (- z3v68 z3v141)) (z3f65 z3v62) (= (z3f84 z3v83) z3v83) (= (z3f84 z3v85) z3v85) (not (z3f65 z3v63)) (= (z3f84 z3v86) z3v86)))
(assert (= z3v133 z3v81))
(push 1)
(assert (not (and (>= z3v149 0) (<  z3v149 z3v68))))
(check-sat)
(pop 1)
(pop 1)
(declare-fun z3v150 () Int)
(push 1)
(assert true)
(assert (= z3v150 z3v81))
(assert (and (not (z3f65 z3v64)) (not (z3f65 z3v64)) (= z3v64 z3v66) (= (z3f65 z3v64) (<  z3v68 z3v67)) (= (z3f65 z3v66) (<  z3v68 z3v67)) (= z3v73 (z3f72 z3v69 z3v70 z3v71)) (= z3v73 z3v74) (= z3v76 (z3f72 z3v111 z3v112 z3v113)) (= z3v76 z3v74) (= z3v77 0) (= z3v77 z3v78) (= z3v79 z3v78) (= z3v79 z3v78) (= z3v79 z3v68) (= z3v80 1) (= z3v114 z3v81) (z3f65 z3v62) (= (z3f84 z3v83) z3v83) (= (z3f84 z3v85) z3v85) (not (z3f65 z3v63)) (= (z3f84 z3v86) z3v86)))
(push 1)
(assert (not (= z3v150 z3v81)))
(check-sat)
(pop 1)
(pop 1)
(declare-fun z3v151 () Int)
(declare-fun z3v152 () Int)
(push 1)
(assert true)
(assert (= z3v152 z3v68))
(assert (and (z3f65 z3v64) (z3f65 z3v64) (= z3v64 z3v66) (= (z3f65 z3v64) (<  z3v68 z3v67)) (= (z3f65 z3v66) (<  z3v68 z3v67)) (= z3v73 (z3f72 z3v69 z3v70 z3v71)) (= z3v73 z3v74) (= z3v76 (z3f72 z3v111 z3v112 z3v113)) (= z3v76 z3v74) (= z3v77 0) (= z3v77 z3v78) (= z3v79 z3v78) (= z3v79 z3v78) (= z3v79 z3v68) (= z3v80 1) (= z3v151 z3v68) (z3f65 z3v62) (= (z3f84 z3v83) z3v83) (= (z3f84 z3v85) z3v85) (not (z3f65 z3v63)) (= (z3f84 z3v86) z3v86)))
(push 1)
(assert (not (and (>= z3v152 0) (<  z3v152 z3v68))))
(check-sat)
(pop 1)
(pop 1)
(declare-fun z3v153 () Int)
(declare-fun z3v154 () Int)
(declare-fun z3v155 () Int)
(declare-fun z3v156 () Int)
(declare-fun z3v157 () Int)
(push 1)
(assert true)
(assert (= z3v157 z3v155))
(assert (= z3v157 (- z3v91 z3v154)))
(assert (and (= z3v98 (z3f72 z3v95 z3v96 z3v97)) (= z3v98 z3v99) (not (z3f65 z3v88)) (not (z3f65 z3v88)) (= z3v88 z3v89) (= (z3f65 z3v88) (<= z3v91 z3v90)) (= (z3f65 z3v89) (<= z3v91 z3v90)) (= z3v90 0) (= z3v155 (- z3v91 z3v154)) (not (z3f65 z3v100)) (not (z3f65 z3v100)) (= z3v100 z3v101) (= (z3f65 z3v100) (<  z3v91 z3v102)) (= (z3f65 z3v101) (<  z3v91 z3v102)) (= z3v80 1) (= z3v156 z3v155) (= z3v156 (- z3v91 z3v154)) (z3f65 z3v62) (= (z3f84 z3v83) z3v83) (= (z3f84 z3v85) z3v85) (not (z3f65 z3v63)) (= (z3f84 z3v86) z3v86)))
(assert (= z3v94 z3v81))
(assert (= z3v153 z3v94))
(assert (= z3v153 z3v81))
(push 1)
(assert (not (and (>= z3v157 0) (<  z3v157 z3v91))))
(check-sat)
(pop 1)
(pop 1)
(declare-fun z3v158 () Int)
(push 1)
(assert true)
(assert (= z3v158 z3v81))
(assert (and (= z3v98 (z3f72 z3v95 z3v96 z3v97)) (= z3v98 z3v99) (not (z3f65 z3v88)) (not (z3f65 z3v88)) (= z3v88 z3v89) (= (z3f65 z3v88) (<= z3v91 z3v90)) (= (z3f65 z3v89) (<= z3v91 z3v90)) (= z3v90 0) (not (z3f65 z3v100)) (not (z3f65 z3v100)) (= z3v100 z3v101) (= (z3f65 z3v100) (<  z3v91 z3v102)) (= (z3f65 z3v101) (<  z3v91 z3v102)) (= z3v80 1) (= z3v103 z3v81) (z3f65 z3v62) (= (z3f84 z3v83) z3v83) (= (z3f84 z3v85) z3v85) (not (z3f65 z3v63)) (= (z3f84 z3v86) z3v86)))
(assert (= z3v94 z3v81))
(push 1)
(assert (not (and (= z3v158 z3v81) (= z3v158 z3v94))))
(check-sat)
(pop 1)
(pop 1)
(declare-fun z3v159 () Int)
(declare-fun z3v160 () Int)
(push 1)
(assert true)
(assert (= z3v160 z3v91))
(assert (and (= z3v98 (z3f72 z3v95 z3v96 z3v97)) (= z3v98 z3v99) (not (z3f65 z3v88)) (not (z3f65 z3v88)) (= z3v88 z3v89) (= (z3f65 z3v88) (<= z3v91 z3v90)) (= (z3f65 z3v89) (<= z3v91 z3v90)) (= z3v90 0) (z3f65 z3v100) (z3f65 z3v100) (= z3v100 z3v101) (= (z3f65 z3v100) (<  z3v91 z3v102)) (= (z3f65 z3v101) (<  z3v91 z3v102)) (= z3v80 1) (= z3v159 z3v91) (z3f65 z3v62) (= (z3f84 z3v83) z3v83) (= (z3f84 z3v85) z3v85) (not (z3f65 z3v63)) (= (z3f84 z3v86) z3v86)))
(assert (= z3v94 z3v81))
(push 1)
(assert (not (and (>= z3v160 0) (<  z3v160 z3v91))))
(check-sat)
(pop 1)
(pop 1)
(declare-fun z3v161 () Int)
(push 1)
(assert true)
(assert (= z3v161 z3v81))
(assert (and (not (z3f65 z3v88)) (not (z3f65 z3v88)) (= z3v88 z3v89) (= (z3f65 z3v88) (<= z3v91 z3v90)) (= (z3f65 z3v89) (<= z3v91 z3v90)) (= z3v90 0) (= z3v80 1) (= z3v92 z3v81) (z3f65 z3v62) (= (z3f84 z3v83) z3v83) (= (z3f84 z3v85) z3v85) (not (z3f65 z3v63)) (= (z3f84 z3v86) z3v86)))
(push 1)
(assert (not (= z3v161 z3v81)))
(check-sat)
(pop 1)
(pop 1)
(declare-fun z3v162 () Int)
(declare-fun z3v163 () Int)
(declare-fun z3v164 () Int)
(declare-fun z3v165 () Int)
(declare-fun z3v166 () Int)
(push 1)
(assert true)
(assert (= z3v166 z3v164))
(assert (= z3v166 (- z3v108 z3v163)))
(assert (and (= z3v164 (- z3v108 z3v163)) (not (z3f65 z3v117)) (not (z3f65 z3v117)) (= z3v117 z3v118) (= (z3f65 z3v117) (<  z3v108 z3v119)) (= (z3f65 z3v118) (<  z3v108 z3v119)) (= z3v123 (z3f72 z3v120 z3v121 z3v122)) (= z3v123 z3v124) (not (z3f65 z3v105)) (not (z3f65 z3v105)) (= z3v105 z3v106) (= (z3f65 z3v105) (<= z3v108 z3v107)) (= (z3f65 z3v106) (<= z3v108 z3v107)) (= z3v107 0) (= z3v80 1) (= z3v165 z3v164) (= z3v165 (- z3v108 z3v163)) (z3f65 z3v62) (= (z3f84 z3v83) z3v83) (= (z3f84 z3v85) z3v85) (not (z3f65 z3v63)) (= (z3f84 z3v86) z3v86)))
(assert (= z3v116 z3v81))
(assert (= z3v162 z3v116))
(assert (= z3v162 z3v81))
(push 1)
(assert (not (and (>= z3v166 0) (<  z3v166 z3v108))))
(check-sat)
(pop 1)
(pop 1)
(declare-fun z3v167 () Int)
(push 1)
(assert true)
(assert (= z3v167 z3v81))
(assert (and (not (z3f65 z3v117)) (not (z3f65 z3v117)) (= z3v117 z3v118) (= (z3f65 z3v117) (<  z3v108 z3v119)) (= (z3f65 z3v118) (<  z3v108 z3v119)) (= z3v123 (z3f72 z3v120 z3v121 z3v122)) (= z3v123 z3v124) (not (z3f65 z3v105)) (not (z3f65 z3v105)) (= z3v105 z3v106) (= (z3f65 z3v105) (<= z3v108 z3v107)) (= (z3f65 z3v106) (<= z3v108 z3v107)) (= z3v107 0) (= z3v80 1) (= z3v125 z3v81) (z3f65 z3v62) (= (z3f84 z3v83) z3v83) (= (z3f84 z3v85) z3v85) (not (z3f65 z3v63)) (= (z3f84 z3v86) z3v86)))
(assert (= z3v116 z3v81))
(push 1)
(assert (not (and (= z3v167 z3v81) (= z3v167 z3v116))))
(check-sat)
(pop 1)
(pop 1)
(declare-fun z3v168 () Int)
(declare-fun z3v169 () Int)
(push 1)
(assert true)
(assert (= z3v169 z3v108))
(assert (and (z3f65 z3v117) (z3f65 z3v117) (= z3v117 z3v118) (= (z3f65 z3v117) (<  z3v108 z3v119)) (= (z3f65 z3v118) (<  z3v108 z3v119)) (= z3v123 (z3f72 z3v120 z3v121 z3v122)) (= z3v123 z3v124) (not (z3f65 z3v105)) (not (z3f65 z3v105)) (= z3v105 z3v106) (= (z3f65 z3v105) (<= z3v108 z3v107)) (= (z3f65 z3v106) (<= z3v108 z3v107)) (= z3v107 0) (= z3v80 1) (= z3v168 z3v108) (z3f65 z3v62) (= (z3f84 z3v83) z3v83) (= (z3f84 z3v85) z3v85) (not (z3f65 z3v63)) (= (z3f84 z3v86) z3v86)))
(assert (= z3v116 z3v81))
(push 1)
(assert (not (and (>= z3v169 0) (<  z3v169 z3v108))))
(check-sat)
(pop 1)
(pop 1)
(declare-fun z3v170 () Int)
(push 1)
(assert true)
(assert (= z3v170 z3v81))
(assert (and (not (z3f65 z3v105)) (not (z3f65 z3v105)) (= z3v105 z3v106) (= (z3f65 z3v105) (<= z3v108 z3v107)) (= (z3f65 z3v106) (<= z3v108 z3v107)) (= z3v107 0) (= z3v80 1) (= z3v109 z3v81) (z3f65 z3v62) (= (z3f84 z3v83) z3v83) (= (z3f84 z3v85) z3v85) (not (z3f65 z3v63)) (= (z3f84 z3v86) z3v86)))
(push 1)
(assert (not (= z3v170 z3v81)))
(check-sat)
(pop 1)
(pop 1)
